NAME : rat99.2206.tour
COMMENT : Cost = 448_2206
COMMENT : Found by LKH [Keld Helsgaun] Thu Nov 16 17:46:26 2017
TYPE : TOUR
DIMENSION : 103
TOUR_SECTION
1
30
39
48
57
66
75
76
85
94
95
86
77
68
67
59
58
49
40
100
10
19
28
37
46
55
64
73
82
91
92
93
83
84
74
65
56
47
38
29
20
101
3
14
15
16
23
24
25
26
35
34
43
53
63
54
45
44
36
27
17
18
9
8
7
6
5
4
103
2
11
21
31
41
61
70
89
98
99
90
81
72
52
42
33
13
12
102
22
32
51
62
71
80
79
88
97
96
87
78
69
60
50
-1
EOF
